param M :=
1 2
2 2
3 3
;

param Smax :=
1 52.5
2 52.5
3 52.5
4 52.5
5 52.5
6 52.5
7 52.5
8 52.5
;

param onpause := 53;

param alpha : 0 1 2 3 :=
1 1 1 1 1 
2 1 1 1 1 
3 1 1 1 1 
4 1 1 1 1 
5 1 1 1 1 
6 1 1 1 1 
7 1 1 1 1 
8 1 1 1 1 
;

param T : 1 2 3 :=
1 0 5 4 
2 5 0 2 
3 4 2 0 
;

